NAME : hk48
TYPE : OP
DIMENSION : 48
COST_LIMIT : 5731
ROUTE_NODES : 27
ROUTE_SCORE : 1614
ROUTE_COST : 5726
NODE_SEQUENCE_SECTION
1
43
21
33
5
3
25
10
40
36
34
6
8
47
7
38
14
18
13
28
32
29
26
24
35
11
16
-1
DEPOT_SECTION
1
-1
EOF
